NAME : rat783
COMMENT : Rattled grid (Pulleyblank)
TYPE : OP
DIMENSION : 783
COST_LIMIT : 4403
EDGE_WEIGHT_TYPE : EUC_2D
NODE_COORD_SECTION
1 13 6
2 49 6
3 105 6
4 239 6
5 110 7
6 270 7
7 53 8
8 131 8
9 88 9
10 97 9
11 244 9
12 78 10
13 254 10
14 174 11
15 10 13
16 200 13
17 29 14
18 62 14
19 123 14
20 141 15
21 201 15
22 167 17
23 39 18
24 219 18
25 14 19
26 200 19
27 204 19
28 220 19
29 100 20
30 127 20
31 151 21
32 188 21
33 88 22
34 231 23
35 167 24
36 140 25
37 26 28
38 253 30
39 101 33
40 270 33
41 44 35
42 181 35
43 245 35
44 211 37
45 30 38
46 54 38
47 69 38
48 116 38
49 7 39
50 159 39
51 189 39
52 13 40
53 73 40
54 175 40
55 213 40
56 2 41
57 25 41
58 77 41
59 142 41
60 222 41
61 143 42
62 165 45
63 94 46
64 125 46
65 67 49
66 237 49
67 46 51
68 150 53
69 200 53
70 38 55
71 132 55
72 179 55
73 228 55
74 107 56
75 243 56
76 82 57
77 113 57
78 207 58
79 261 58
80 37 59
81 51 59
82 163 59
83 71 60
84 255 60
85 140 62
86 154 62
87 248 62
88 8 63
89 104 63
90 208 63
91 222 64
92 180 65
93 196 65
94 68 66
95 96 68
96 232 68
97 24 69
98 84 69
99 138 70
100 40 71
101 267 72
102 121 73
103 180 73
104 217 75
105 120 76
106 259 78
107 58 79
108 120 80
109 250 80
110 20 81
111 59 81
112 107 82
113 218 82
114 246 83
115 31 86
116 98 89
117 15 90
118 140 90
119 226 91
120 75 92
121 154 92
122 240 93
123 20 94
124 160 94
125 0 95
126 149 95
127 45 96
128 113 97
129 177 97
130 185 97
131 204 97
132 200 98
133 89 99
134 260 99
135 262 99
136 60 101
137 89 101
138 136 101
139 17 103
140 110 103
141 190 104
142 240 104
143 90 105
144 164 105
145 221 106
146 3 107
147 24 107
148 231 107
149 254 107
150 154 109
151 63 110
152 77 110
153 47 111
154 181 111
155 31 114
156 60 115
157 126 117
158 207 117
159 170 118
160 36 119
161 81 120
162 61 121
163 111 121
164 140 121
165 144 121
166 217 121
167 188 122
168 230 122
169 119 124
170 237 127
171 266 128
172 17 129
173 151 129
174 220 129
175 42 130
176 103 130
177 252 131
178 210 133
179 99 134
180 20 135
181 249 135
182 137 137
183 170 137
184 59 138
185 0 139
186 20 139
187 76 140
188 174 140
189 195 140
190 121 141
191 194 141
192 212 141
193 267 141
194 248 142
195 46 146
196 52 146
197 182 146
198 100 147
199 259 147
200 109 148
201 170 149
202 78 151
203 200 151
204 70 152
205 31 154
206 120 154
207 226 155
208 82 156
209 140 156
210 158 156
211 138 157
212 137 159
213 171 159
214 240 160
215 2 161
216 13 161
217 113 161
218 255 163
219 141 164
220 201 165
221 175 166
222 60 167
223 232 167
224 84 168
225 124 168
226 170 169
227 58 170
228 190 171
229 187 173
230 36 174
231 46 174
232 107 174
233 116 174
234 269 174
235 3 175
236 14 175
237 158 178
238 249 178
239 21 179
240 95 179
241 213 180
242 11 181
243 76 181
244 179 181
245 224 182
246 28 184
247 236 184
248 51 186
249 60 186
250 119 186
251 148 187
252 218 187
253 140 188
254 266 188
255 30 190
256 76 191
257 163 191
258 94 192
259 103 193
260 188 193
261 228 193
262 152 194
263 193 197
264 246 197
265 252 197
266 1 198
267 73 198
268 86 198
269 125 198
270 7 199
271 206 199
272 207 199
273 44 201
274 55 201
275 158 201
276 30 203
277 25 204
278 44 204
279 231 204
280 260 204
281 120 207
282 175 207
283 185 207
284 228 207
285 265 209
286 68 210
287 166 212
288 191 212
289 15 215
290 109 215
291 82 216
292 130 217
293 97 218
294 37 219
295 147 219
296 238 219
297 243 219
298 219 220
299 68 221
300 113 221
301 171 222
302 23 223
303 130 223
304 243 224
305 6 225
306 86 225
307 106 225
308 193 226
309 224 226
310 186 227
311 145 228
312 160 228
313 14 229
314 258 231
315 270 231
316 97 232
317 47 233
318 155 233
319 58 235
320 210 235
321 119 237
322 130 238
323 67 239
324 220 239
325 80 240
326 152 240
327 56 242
328 30 243
329 254 243
330 140 244
331 230 244
332 92 246
333 117 246
334 220 246
335 50 248
336 145 249
337 194 250
338 184 251
339 71 252
340 175 252
341 250 252
342 226 253
343 15 255
344 36 255
345 120 256
346 83 257
347 104 257
348 170 257
349 208 258
350 99 259
351 162 259
352 9 260
353 82 260
354 152 260
355 253 260
356 21 261
357 267 261
358 44 262
359 16 263
360 141 264
361 210 264
362 220 264
363 9 268
364 175 268
365 79 270
366 50 271
367 267 271
368 196 272
369 239 272
370 113 273
371 68 274
372 127 274
373 187 275
374 243 276
375 140 277
376 89 278
377 108 278
378 219 279
379 229 279
380 150 280
381 160 280
382 32 281
383 178 282
384 11 283
385 200 283
386 156 284
387 30 285
388 201 285
389 58 289
390 23 290
391 130 290
392 67 291
393 100 291
394 257 291
395 3 292
396 237 292
397 46 293
398 221 294
399 246 296
400 181 297
401 28 299
402 178 299
403 200 299
404 266 299
405 73 300
406 266 300
407 39 301
408 108 301
409 109 301
410 115 301
411 137 301
412 215 301
413 259 302
414 188 304
415 190 304
416 167 307
417 133 308
418 143 309
419 126 310
420 94 312
421 238 312
422 60 315
423 14 316
424 85 316
425 41 317
426 73 317
427 221 318
428 245 318
429 6 319
430 78 319
431 118 319
432 183 319
433 67 320
434 152 321
435 126 323
436 6 324
437 156 324
438 55 325
439 113 325
440 208 325
441 137 326
442 248 326
443 46 328
444 266 329
445 17 330
446 177 330
447 218 330
448 149 331
449 83 333
450 193 333
451 231 333
452 24 334
453 31 335
454 223 336
455 66 337
456 90 337
457 102 337
458 26 339
459 166 339
460 77 340
461 258 340
462 268 344
463 63 345
464 140 346
465 198 346
466 30 348
467 113 348
468 220 348
469 130 349
470 133 349
471 238 349
472 5 350
473 80 350
474 179 350
475 200 350
476 150 352
477 97 354
478 223 354
479 253 354
480 181 356
481 246 356
482 16 358
483 103 359
484 30 360
485 40 360
486 58 360
487 169 360
488 200 361
489 180 362
490 266 362
491 100 365
492 64 366
493 187 366
494 146 367
495 80 368
496 159 368
497 161 368
498 220 368
499 1 369
500 103 369
501 115 373
502 210 373
503 248 374
504 259 374
505 131 375
506 35 376
507 122 376
508 56 378
509 210 378
510 238 378
511 15 379
512 50 379
513 85 379
514 182 379
515 94 381
516 266 383
517 44 384
518 74 384
519 80 384
520 191 384
521 130 385
522 169 385
523 258 385
524 177 389
525 210 391
526 13 392
527 160 392
528 209 392
529 102 393
530 30 394
531 67 395
532 227 397
533 4 398
534 35 398
535 118 398
536 123 398
537 205 399
538 250 399
539 60 400
540 68 400
541 131 400
542 141 400
543 166 400
544 212 400
545 230 400
546 245 400
547 71 401
548 12 404
549 240 404
550 251 404
551 27 405
552 92 406
553 183 406
554 38 410
555 266 410
556 127 411
557 83 412
558 152 413
559 192 413
560 7 415
561 55 416
562 42 418
563 107 418
564 114 419
565 150 419
566 105 420
567 230 420
568 13 421
569 56 421
570 146 421
571 174 421
572 185 421
573 194 421
574 241 421
575 164 422
576 9 423
577 141 423
578 96 424
579 43 425
580 25 431
581 201 431
582 230 432
583 257 432
584 132 434
585 263 434
586 33 435
587 119 435
588 86 436
589 178 436
590 64 437
591 129 437
592 231 437
593 216 438
594 32 439
595 239 439
596 11 440
597 46 440
598 52 440
599 73 440
600 140 442
601 145 442
602 259 442
603 119 443
604 207 443
605 162 444
606 215 445
607 106 447
608 245 447
609 123 448
610 180 450
611 30 451
612 61 451
613 77 453
614 151 453
615 200 453
616 222 453
617 99 455
618 182 456
619 83 457
620 265 458
621 112 459
622 127 459
623 264 459
624 8 460
625 255 460
626 25 462
627 58 462
628 105 462
629 200 462
630 141 463
631 165 464
632 197 464
633 153 465
634 66 466
635 242 466
636 135 467
637 218 467
638 12 468
639 174 468
640 9 469
641 79 469
642 188 469
643 239 475
644 80 476
645 48 478
646 140 479
647 221 480
648 32 481
649 99 481
650 186 481
651 133 483
652 30 484
653 154 484
654 164 485
655 57 486
656 249 486
657 96 487
658 250 487
659 27 488
660 70 489
661 108 489
662 174 489
663 237 489
664 198 491
665 10 492
666 123 492
667 207 492
668 210 493
669 120 494
670 224 495
671 40 498
672 10 499
673 187 499
674 208 499
675 76 500
676 214 500
677 262 500
678 29 501
679 48 501
680 63 501
681 90 501
682 262 501
683 10 503
684 112 504
685 56 506
686 135 506
687 246 508
688 30 509
689 155 509
690 67 510
691 86 510
692 90 512
693 171 513
694 226 513
695 127 517
696 233 518
697 2 519
698 82 519
699 121 519
700 154 519
701 160 519
702 208 519
703 231 519
704 1 520
705 40 520
706 58 520
707 103 520
708 200 520
709 28 521
710 143 521
711 252 521
712 260 521
713 95 525
714 253 525
715 230 527
716 198 528
717 243 528
718 42 533
719 109 533
720 117 533
721 130 534
722 76 535
723 188 536
724 216 536
725 14 538
726 142 538
727 167 539
728 233 539
729 263 539
730 180 540
731 180 541
732 64 542
733 96 543
734 15 544
735 39 544
736 52 544
737 107 545
738 9 546
739 72 546
740 143 546
741 193 546
742 208 547
743 68 548
744 247 549
745 47 550
746 183 552
747 22 553
748 138 553
749 157 553
750 167 553
751 228 553
752 213 555
753 252 557
754 118 558
755 121 558
756 207 559
757 84 560
758 70 561
759 83 562
760 50 564
761 30 565
762 157 565
763 171 565
764 215 565
765 50 566
766 141 568
767 260 569
768 94 570
769 8 571
770 169 571
771 251 574
772 38 576
773 130 577
774 132 577
775 240 578
776 76 579
777 114 579
778 12 580
779 105 580
780 184 580
781 199 580
782 229 580
783 231 580
NODE_SCORE_SECTION
1 0
2 4
3 10
4 23
5 10
6 26
7 4
8 12
9 8
10 9
11 24
12 7
13 25
14 17
15 2
16 19
17 3
18 6
19 12
20 13
21 19
22 16
23 4
24 21
25 3
26 19
27 20
28 21
29 10
30 12
31 15
32 18
33 9
34 23
35 16
36 14
37 5
38 25
39 10
40 26
41 6
42 18
43 24
44 21
45 6
46 7
47 8
48 12
49 6
50 16
51 19
52 7
53 9
54 18
55 21
56 7
57 7
58 10
59 15
60 22
61 15
62 17
63 11
64 14
65 10
66 24
67 9
68 16
69 21
70 9
71 15
72 19
73 24
74 13
75 25
76 12
77 14
78 22
79 27
80 10
81 11
82 18
83 12
84 26
85 17
86 18
87 26
88 11
89 14
90 23
91 24
92 20
93 22
94 13
95 14
96 25
97 12
98 14
99 18
100 13
101 28
102 17
103 21
104 24
105 17
106 28
107 14
108 17
109 27
110 14
111 15
112 17
113 25
114 27
115 14
116 17
117 15
118 20
119 26
120 16
121 21
122 28
123 16
124 22
125 16
126 21
127 16
128 19
129 23
130 24
131 25
132 25
133 18
134 30
135 30
136 18
137 19
138 21
139 17
140 20
141 25
142 29
143 19
144 23
145 28
146 18
147 18
148 29
149 30
150 23
151 19
152 20
153 19
154 25
155 19
156 20
157 23
158 28
159 25
160 20
161 21
162 21
163 23
164 24
165 24
166 29
167 27
168 30
169 24
170 31
171 33
172 22
173 26
174 30
175 22
176 24
177 33
178 30
179 24
180 23
181 33
182 26
183 28
184 23
185 23
186 23
187 24
188 28
189 30
190 26
191 30
192 31
193 35
194 34
195 25
196 25
197 30
198 26
199 35
200 27
201 30
202 26
203 31
204 26
205 26
206 28
207 34
208 27
209 29
210 30
211 29
212 29
213 31
214 35
215 27
216 27
217 29
218 36
219 30
220 33
221 32
222 28
223 35
224 29
225 30
226 32
227 29
228 34
229 34
230 29
231 29
232 30
233 31
234 39
235 29
236 29
237 33
238 38
239 30
240 31
241 36
242 30
243 31
244 35
245 37
246 31
247 38
248 31
249 31
250 33
251 34
252 37
253 34
254 40
255 32
256 32
257 35
258 33
259 33
260 37
261 39
262 35
263 37
264 40
265 41
266 33
267 34
268 34
269 35
270 33
271 39
272 39
273 34
274 34
275 37
276 34
277 34
278 35
279 41
280 43
281 36
282 39
283 39
284 41
285 43
286 36
287 39
288 40
289 36
290 37
291 37
292 38
293 37
294 37
295 39
296 43
297 43
298 42
299 38
300 39
301 41
302 37
303 39
304 44
305 38
306 39
307 39
308 42
309 44
310 42
311 41
312 41
313 39
314 46
315 47
316 40
317 39
318 42
319 40
320 44
321 41
322 42
323 40
324 45
325 41
326 43
327 41
328 41
329 47
330 43
331 46
332 42
333 43
334 46
335 42
336 44
337 46
338 45
339 43
340 45
341 49
342 48
343 43
344 43
345 44
346 44
347 44
348 46
349 48
350 44
351 46
352 44
353 44
354 46
355 50
356 44
357 51
358 44
359 44
360 46
361 49
362 49
363 45
364 48
365 46
366 46
367 52
368 49
369 51
370 47
371 46
372 48
373 49
374 52
375 48
376 47
377 48
378 51
379 52
380 49
381 49
382 47
383 50
384 48
385 51
386 50
387 48
388 52
389 49
390 49
391 50
392 49
393 50
394 55
395 49
396 54
397 49
398 54
399 55
400 52
401 50
402 53
403 53
404 56
405 51
406 56
407 51
408 51
409 52
410 52
411 52
412 55
413 57
414 54
415 54
416 54
417 53
418 53
419 53
420 53
421 57
422 53
423 53
424 53
425 53
426 53
427 57
428 58
429 53
430 54
431 54
432 56
433 54
434 56
435 55
436 54
437 56
438 55
439 55
440 58
441 56
442 60
443 55
444 61
445 55
446 58
447 59
448 57
449 56
450 59
451 60
452 56
453 56
454 60
455 57
456 57
457 57
458 57
459 59
460 57
461 62
462 63
463 58
464 59
465 61
466 58
467 59
468 62
469 59
470 60
471 63
472 59
473 59
474 61
475 62
476 61
477 60
478 63
479 64
480 62
481 64
482 60
483 61
484 60
485 60
486 60
487 62
488 63
489 63
490 66
491 62
492 61
493 64
494 63
495 62
496 63
497 63
498 65
499 62
500 63
501 63
502 65
503 67
504 67
505 64
506 63
507 64
508 63
509 66
510 67
511 63
512 64
513 64
514 66
515 64
516 69
517 64
518 65
519 65
520 67
521 66
522 67
523 69
524 67
525 68
526 65
527 67
528 68
529 66
530 66
531 66
532 70
533 66
534 66
535 67
536 67
537 69
538 71
539 67
540 67
541 68
542 68
543 69
544 70
545 71
546 71
547 68
548 68
549 72
550 72
551 68
552 69
553 71
554 69
555 73
556 70
557 69
558 71
559 72
560 70
561 70
562 70
563 71
564 71
565 71
566 71
567 74
568 71
569 71
570 72
571 73
572 73
573 73
574 75
575 73
576 71
577 73
578 72
579 72
580 72
581 75
582 75
583 76
584 74
585 77
586 73
587 74
588 73
589 75
590 73
591 74
592 76
593 76
594 74
595 77
596 74
597 74
598 74
599 74
600 75
601 75
602 78
603 75
604 77
605 76
606 78
607 76
608 79
609 76
610 77
611 76
612 76
613 76
614 77
615 78
616 79
617 77
618 78
619 77
620 81
621 78
622 78
623 81
624 77
625 81
626 78
627 78
628 78
629 80
630 79
631 80
632 80
633 80
634 79
635 82
636 80
637 81
638 79
639 81
640 79
641 79
642 81
643 83
644 80
645 80
646 81
647 83
648 80
649 81
650 82
651 82
652 81
653 82
654 83
655 81
656 85
657 82
658 85
659 82
660 82
661 82
662 84
663 85
664 84
665 82
666 83
667 85
668 85
669 84
670 86
671 83
672 83
673 85
674 86
675 84
676 86
677 88
678 84
679 84
680 84
681 85
682 88
683 85
684 85
685 85
686 86
687 88
688 85
689 87
690 86
691 86
692 86
693 87
694 89
695 87
696 89
697 87
698 87
699 87
700 88
701 88
702 89
703 90
704 87
705 87
706 88
707 88
708 90
709 88
710 89
711 91
712 91
713 89
714 92
715 91
716 91
717 92
718 89
719 90
720 90
721 90
722 90
723 91
724 92
725 90
726 91
727 92
728 93
729 94
730 92
731 92
732 91
733 91
734 91
735 91
736 91
737 92
738 92
739 92
740 93
741 94
742 94
743 92
744 95
745 92
746 94
747 93
748 94
749 94
750 94
751 95
752 95
753 96
754 94
755 94
756 96
757 94
758 94
759 94
760 94
761 95
762 96
763 96
764 97
765 95
766 96
767 98
768 96
769 95
770 97
771 99
772 96
773 97
774 97
775 99
776 97
777 97
778 97
779 97
780 98
781 99
782 99
783 100
DEPOT_SECTION
1
-1
EOF
